
Gurobi 8.1.1 (linux64, Python) logging started Wed Nov 11 11:04:05 2020


Gurobi 8.1.1 (linux64, Python) logging started Wed Nov 11 16:17:01 2020


Gurobi 8.1.1 (linux64, Python) logging started Wed Nov 11 16:18:36 2020


Gurobi 8.1.1 (linux64, Python) logging started Wed Nov 11 16:19:13 2020


Gurobi 8.1.1 (linux64, Python) logging started Wed Nov 11 16:19:36 2020


Gurobi 8.1.1 (linux64, Python) logging started Wed Nov 11 16:32:21 2020


Gurobi 8.1.1 (linux64, Python) logging started Wed Nov 11 16:35:49 2020


Gurobi 8.1.1 (linux64, Python) logging started Wed Nov 11 16:40:50 2020


Gurobi 8.1.1 (linux64, Python) logging started Wed Nov 11 16:49:24 2020


Gurobi 8.1.1 (linux64, Python) logging started Wed Nov 11 17:18:30 2020


Gurobi 8.1.1 (linux64, Python) logging started Wed Nov 11 17:37:08 2020


Gurobi 8.1.1 (linux64, Python) logging started Wed Nov 11 19:11:27 2020


Gurobi 8.1.1 (linux64, Python) logging started Wed Nov 11 19:27:13 2020


Gurobi 8.1.1 (linux64, Python) logging started Thu Nov 12 20:25:59 2020


Gurobi 8.1.1 (linux64, Python) logging started Thu Nov 12 20:44:42 2020


Gurobi 8.1.1 (linux64, Python) logging started Thu Nov 12 21:19:14 2020


Gurobi 8.1.1 (linux64, Python) logging started Thu Nov 12 21:34:12 2020


Gurobi 8.1.1 (linux64, Python) logging started Thu Nov 12 21:34:29 2020


Gurobi 8.1.1 (linux64, Python) logging started Thu Nov 12 21:35:21 2020


Gurobi 8.1.1 (linux64, Python) logging started Thu Nov 12 21:37:09 2020


Gurobi 8.1.1 (linux64, Python) logging started Thu Nov 12 21:38:18 2020


Gurobi 8.1.1 (linux64, Python) logging started Thu Nov 12 21:38:46 2020


Gurobi 8.1.1 (linux64, Python) logging started Thu Nov 12 21:43:55 2020


Gurobi 8.1.1 (linux64, Python) logging started Fri Nov 13 13:28:02 2020


Gurobi 8.1.1 (linux64, Python) logging started Fri Nov 13 13:32:04 2020


Gurobi 8.1.1 (linux64, Python) logging started Fri Nov 13 13:37:18 2020


Gurobi 8.1.1 (linux64, Python) logging started Fri Nov 13 14:10:27 2020


Gurobi 8.1.1 (linux64, Python) logging started Fri Nov 13 14:18:04 2020


Gurobi 8.1.1 (linux64, Python) logging started Fri Nov 13 14:54:54 2020


Gurobi 8.1.1 (linux64, Python) logging started Fri Nov 13 17:10:43 2020


Gurobi 8.1.1 (linux64, Python) logging started Fri Nov 13 18:05:42 2020


Gurobi 8.1.1 (linux64, Python) logging started Sat Nov 14 10:04:17 2020


Gurobi 8.1.1 (linux64, Python) logging started Sat Nov 14 10:33:58 2020


Gurobi 8.1.1 (linux64, Python) logging started Sat Nov 14 10:57:59 2020


Gurobi 8.1.1 (linux64, Python) logging started Sun Nov 15 19:42:15 2020


Gurobi 8.1.1 (linux64, Python) logging started Sun Nov 15 19:42:15 2020


Gurobi 8.1.1 (linux64, Python) logging started Sun Nov 15 19:42:15 2020


Gurobi 8.1.1 (linux64, Python) logging started Sun Nov 15 19:42:16 2020


Gurobi 8.1.1 (linux64, Python) logging started Sun Nov 15 19:59:26 2020


Gurobi 8.1.1 (linux64, Python) logging started Sun Nov 15 19:59:27 2020


Gurobi 8.1.1 (linux64, Python) logging started Sun Nov 15 20:12:30 2020


Gurobi 8.1.1 (linux64, Python) logging started Sun Nov 15 20:12:32 2020


Gurobi 8.1.1 (linux64, Python) logging started Sun Nov 15 22:20:11 2020


Gurobi 8.1.1 (linux64, Python) logging started Sun Nov 15 22:20:12 2020

